(set-info :smt-lib-version 2.7)
(set-logic ALL)
(set-info :source |
Generated on: 2026-06-22
Generator: pog2smtlib-2.7 github.com/CLEARSY/pog2smtlib-2.7 (-l HO_ALL -rpX)
Application: Discharging a proof obligation generated by aTelierB from an anonymized B machine
Target solver: CVC5 (--mbqi --enum-inst)
Time limit: 1200.0
|)
(set-info :license "www.gnu.org/licenses/gpl-3.0.en.html")
(set-info :category "industrial")
(set-info :status unknown)

(set-option :print-success false)
(define-sort |Z| () Int)
(declare-sort P 1)
(declare-datatype C (par (T1 T2) ((maplet (fst T1) (snd T2)))))
(declare-sort |s0| 0)
(define-sort |POW Z| () (P |Z|))
(define-sort |(Z x s0)| () (C |Z| |s0|))
(define-sort |POW s0| () (P |s0|))
(declare-fun |set.in Z| (|Z| |POW Z|) Bool)
(define-sort |POW (Z x s0)| () (P |(Z x s0)|))
(declare-fun |set.in s0| (|s0| |POW s0|) Bool)
(declare-fun |set.in (Z x s0)| (|(Z x s0)| |POW (Z x s0)|) Bool)
(define-sort |POW POW (Z x s0)| () (P |POW (Z x s0)|))
(declare-fun |set.subseteq (Z x s0)| (|POW (Z x s0)| |POW (Z x s0)|) Bool)
(assert (!
    (forall ((s |POW (Z x s0)|) (t |POW (Z x s0)|))
      (=
        (|set.subseteq (Z x s0)| s t)
        (forall ((e |(Z x s0)|)) (=> (|set.in (Z x s0)| e s) (|set.in (Z x s0)| e t)))
      )
    )
    :named |ax.set.subseteq (Z x s0)|))
(declare-fun |set.in POW (Z x s0)| (|POW (Z x s0)| |POW POW (Z x s0)|) Bool)
(declare-fun |sub-sets (Z x s0)| (|POW (Z x s0)|) |POW POW (Z x s0)|)
(assert (!
  (forall ((s |POW (Z x s0)|) (t |POW (Z x s0)|))
    (=
      (|set.in POW (Z x s0)| s (|sub-sets (Z x s0)| t))
      (|set.subseteq (Z x s0)| s t)))
  :named |ax.sub-sets (Z x s0)|))
(declare-fun |set.product Z s0| (|POW Z| |POW s0|) |POW (Z x s0)|)
(assert (!
  (forall ((s1 |POW Z|) (s2 |POW s0|))
    (forall ((p |(Z x s0)|))
      (= (|set.in (Z x s0)| p (|set.product Z s0| s1 s2))
        (and (|set.in Z| (fst p) s1) (|set.in s0| (snd p) s2)))))
  :named |ax.set.in.product.1 (Z x s0)|))
(assert (!
  (forall ((s1 |POW Z|) (s2 |POW s0|))
    (forall ((x1 |Z|) (x2 |s0|))
      (= (|set.in (Z x s0)| (maplet x1 x2) (|set.product Z s0| s1 s2))
        (and (|set.in Z| x1 s1) (|set.in s0| x2 s2)))))
  :named |ax.set.in.product.2 (Z x s0)|))
(declare-const s7 |Z|)
(declare-const s16 |Z|)
(declare-const s10 |Z|)
(declare-const s1 |Z|)
(declare-const s19 |Z|)
(declare-const s13 |Z|)
(declare-const s8 |Z|)
(declare-const s0 |POW s0|)
(declare-const s6 |Z|)
(declare-const s2 |s0|)
(declare-const s5 |Z|)
(declare-const s4 |Z|)
(declare-const s20 |POW (Z x s0)|)
(declare-const s9 |Z|)
(declare-const s11 |Z|)
(declare-const s15 |Z|)
(declare-const s3 |s0|)
(declare-const s17 |Z|)
(declare-const s18 |Z|)
(declare-const s14 |Z|)
(declare-const s12 |Z|)
(declare-fun |rel.domain Z s0| (|POW (Z x s0)|) |POW Z|)
(assert (!
  (forall ((r |POW (Z x s0)|) (e |Z|))
    (= (|set.in Z| e (|rel.domain Z s0| r))
       (exists ((y |s0|)) (|set.in (Z x s0)| (maplet e y) r))))
  :named |ax:set.in.domain (Z x s0)|))
(declare-fun |interval| (|Z| |Z|) |POW Z|)
 (assert (!
    (forall ((l |Z|) (u |Z|) (e |Z|))
        (= (|set.in Z| e (|interval| l u))
            (and (<= l e) (<= e u))))
    :named |ax.set.in.interval|))
(declare-fun |set.subseteq Z| (|POW Z| |POW Z|) Bool)
(assert (!
    (forall ((s |POW Z|) (t |POW Z|))
      (=
        (|set.subseteq Z| s t)
        (forall ((e |Z|)) (=> (|set.in Z| e s) (|set.in Z| e t)))
      )
    )
    :named |ax.set.subseteq Z|))
(declare-fun |relations Z s0| (|POW Z| |POW s0|) |POW POW (Z x s0)|)
(assert (!
  (forall ((X |POW Z|) (Y |POW s0|))
    (= (|relations Z s0| X Y)
       (|sub-sets (Z x s0)| (|set.product Z s0| X Y))))
    :named |def.relations (Z x s0)|))
(declare-const NATURAL |POW Z|)
(assert (!
  (forall ((e |Z|)) (= (|set.in Z| e NATURAL) (<= 0 e)))
  :named |ax.set.in.NATURAL|))
(assert (!
  (forall ((s |POW s0|) (t |POW s0|))
    (=
      (= s t)
      (forall ((e |s0|)) (= (|set.in s0| e s) (|set.in s0| e t)))))
  :named |ax.set.eq s0|))
(declare-const |set.empty s0| |POW s0|)
(assert (!
  (forall ((e |s0|)) (not (|set.in s0| e |set.empty s0|)))
  :named |ax.set.in.empty s0|))
(define-sort |? Z| () (-> |Z| Bool))
(declare-const |set.intent Z| (-> |? Z| |POW Z|))
(assert (!
  (forall ((p |? Z|))
    (forall ((x |Z|))
      (= (|set.in Z| x (|set.intent Z| p))
         (@ p x))))
  :named |ax:set.in.intent Z|))
(declare-fun |rel.image Z s0| (|POW (Z x s0)| |POW Z|) |POW s0|)
(assert (!
  (forall ((r |POW (Z x s0)|) (s |POW Z|) (x |s0|))
    (= (|set.in s0| x (|rel.image Z s0| r s))
       (exists ((y |Z|)) (and (|set.in Z| y s) (|set.in (Z x s0)| (maplet y x) r)))))
  :named |ax:set.in.image (Z x POW (Z x s0))|))
(declare-fun |set.union s0| (|POW s0| |POW s0|) |POW s0|)
(assert (!
  (forall ((e |s0|) (s |POW s0|) (t |POW s0|))
    (= (|set.in s0| e (|set.union s0| s t))
       (or (|set.in s0| e s) (|set.in s0| e t))))
  :named |ax.set.in.union s0|))
(define-sort |? s0| () (-> |s0| Bool))
(declare-const |set.intent s0| (-> |? s0| |POW s0|))
(assert (!
  (forall ((p |? s0|))
    (forall ((x |s0|))
      (= (|set.in s0| x (|set.intent s0| p))
         (@ p x))))
  :named |ax:set.in.intent s0|))
(declare-fun |set.subseteq s0| (|POW s0| |POW s0|) Bool)
(assert (!
    (forall ((s |POW s0|) (t |POW s0|))
      (=
        (|set.subseteq s0| s t)
        (forall ((e |s0|)) (=> (|set.in s0| e s) (|set.in s0| e t)))
      )
    )
    :named |ax.set.subseteq s0|))
(assert (!
  (|set.in Z| s9 NATURAL)
  :named |Define:lprp:10|))
(assert (!
  (< s1 s9)
  :named |Define:lprp:24|))
(assert (!
  (<= s8 s9)
  :named |Define:lprp:30|))
(assert (!
  (|set.in POW (Z x s0)| s20 (|relations Z s0| NATURAL s0))
  :named |Define:inv:2|))
(assert (!
  (|set.subseteq Z| (|rel.domain Z s0| s20) (|interval| s1 s19))
  :named |Define:inv:3|))
(assert (!
  (=>
  (>= s19 s8)
  (exists
    ((s21 |Z|))
    (and
      (|set.in Z| s21 (|interval| s6 s8))
      (|set.in s0| s2 (|rel.image Z s0| s20 (|set.intent Z| (lambda ((_c0 |Z|)) (= _c0 s21))))))))
  :named |Define:inv:4|))
(assert (!
  (not
  (|set.in s0| s2 (|rel.image Z s0| s20 (|interval| s8 s9))))
  :named |Define:inv:5|))
(assert (!
  (forall
  ((s22 |Z|))
  (=>
    (and
      (|set.in Z| s22 NATURAL)
      (<= s6 s22)
      (<= s22 s9))
    (|set.subseteq s0| (|rel.image Z s0| s20 (|interval| s22 s9)) (|set.union s0| (|rel.image Z s0| s20 (|set.intent Z| (lambda ((_c0 |Z|)) (= _c0 s22)))) (|set.intent s0| (lambda ((_c0 |s0|)) (= _c0 s2)))))))
  :named |Define:inv:6|))
(assert (!
  (forall
  ((s23 |Z|)(s24 |s0|))
  (=>
    (|set.in (Z x s0)| (maplet s23 s24) s20)
    (= (|rel.image Z s0| s20 (|set.intent Z| (lambda ((_c0 |Z|)) (= _c0 s23)))) (|set.intent s0| (lambda ((_c0 |s0|)) (= _c0 s24))))))
  :named |Define:inv:7|))
(assert (!
  (|set.in Z| s1 NATURAL)
  :named |Define:lprp:1|))
(assert (!
  (not
  (= s3 s2))
  :named |Define:lprp:4|))
(assert (!
  (|set.in Z| s6 NATURAL)
  :named |Define:lprp:7|))
(assert (!
  (|set.in Z| s8 NATURAL)
  :named |Define:lprp:9|))
(assert (!
  (< s1 s5)
  :named |Define:lprp:20|))
(assert (!
  (< s1 s6)
  :named |Define:lprp:21|))
(assert (!
  (< s1 s8)
  :named |Define:lprp:22|))
(assert (!
  (< s1 s7)
  :named |Define:lprp:23|))
(assert (!
  (< s1 s4)
  :named |Define:lprp:25|))
(assert (!
  (<= s6 s5)
  :named |Define:lprp:26|))
(assert (!
  (<= s5 s8)
  :named |Define:lprp:27|))
(assert (!
  (<= s6 s8)
  :named |Define:lprp:28|))
(assert (!
  (<= s6 s7)
  :named |Define:lprp:29|))
(assert (!
  (<= s6 (+ s4 s16))
  :named |Define:lprp:32|))
(assert (!
  (<= s7 (+ s6 s13))
  :named |Define:lprp:33|))
(assert (!
  (<= s10 (+ (+ s6 s13) s15))
  :named |Define:lprp:34|))
(assert (!
  (|set.in Z| s19 NATURAL)
  :named |Define:inv:0|))
(assert (!
  (<= s1 s19)
  :named |Define:inv:1|))
(assert (!
  (|set.in Z| s4 NATURAL)
  :named |Define:lprp:5|))
(assert (!
  (|set.in Z| s5 NATURAL)
  :named |Define:lprp:6|))
(assert (!
  (|set.in Z| s7 NATURAL)
  :named |Define:lprp:8|))
(assert (!
  (|set.in Z| s10 NATURAL)
  :named |Define:lprp:11|))
(assert (!
  (|set.in Z| s13 NATURAL)
  :named |Define:lprp:14|))
(assert (!
  (|set.in Z| s15 NATURAL)
  :named |Define:lprp:16|))
(assert (!
  (|set.in Z| s16 NATURAL)
  :named |Define:lprp:17|))
(assert (!
  (< s7 s12)
  :named |Define:lprp:31|))
(assert (!
  (<= s11 (+ s10 s14))
  :named |Define:lprp:35|))
(assert (!
  (<= (+ (+ s13 s15) s14) s17)
  :named |Define:lprp:36|))
(assert (!
  (<= (+ (+ (+ s16 s13) s15) s14) s18)
  :named |Define:lprp:37|))
(assert (!
  (|set.in Z| s11 NATURAL)
  :named |Define:lprp:12|))
(assert (!
  (|set.in Z| s12 NATURAL)
  :named |Define:lprp:13|))
(assert (!
  (|set.in Z| s14 NATURAL)
  :named |Define:lprp:15|))
(assert (!
  (|set.in Z| s17 NATURAL)
  :named |Define:lprp:18|))
(assert (!
  (|set.in Z| s18 NATURAL)
  :named |Define:lprp:19|))
(assert (!
  (not
    (= (|rel.image Z s0| s20 (|set.intent Z| (lambda ((_c0 |Z|)) (= _c0 s9)))) |set.empty s0|))
  :named |Goal|))
(check-sat)
(exit)
